formal_lp/lp_example/out.lp
\* Problem: example *\

Maximize
 objective: + 3 x - y

Subject To
 pi_sum: + x + y + z = 3.14159265358979
 c1: + x + 1.41421356237309 y - z <= 1.73205080756888

Bounds
 0 <= x <= 1.41421356237309
 1.73205080756888 <= y <= 10
 1 <= z <= 3

End
