formal_lp/lp_example/out.txt
3 3
2 2 -0.693896441358953
1 -0.693896441358953 -0
5 3.14159265358979 1.5
3 1.73205080756888 1.5
1 0.346051455403308 0
2 1.73205080756888 -4.62132034355964
1 1.06349039061761 0
